c read Graph
c width = 41
c time = 242 ms
c width = 4
c time = 306 ms
c width = 4
c time = 4151 ms
s td 48 5 52
b 1 1 2 14
b 2 2 3 14 15
b 3 11 12 25 26
b 4 3 14 15 27
b 5 11 25 26 39
b 6 27 28 41 42
b 7 38 39 50 51
b 8 3 4 5 17
b 9 5 6 7 19
b 10 7 8 9 21
b 11 9 10 11 23
b 12 3 15 16 27 28
b 13 3 16 27 28 42
b 14 3 16 28 29 42
b 15 3 16 17 29 42
b 16 3 5 17 29 42
b 17 5 17 29 30 42
b 18 5 17 18 30 42
b 19 5 18 30 42 43
b 20 5 18 30 31 43
b 21 5 18 19 31 43
b 22 5 7 19 31 43
b 23 7 19 31 43 44
b 24 7 19 31 32 44
b 25 7 19 20 32 44
b 26 7 20 32 44 45
b 27 7 20 32 33 45
b 28 7 20 21 33 45
b 29 7 9 21 33 45
b 30 9 21 33 45 46
b 31 9 21 33 34 46
b 32 9 21 22 34 46
b 33 9 22 34 46 47
b 34 9 22 34 35 47
b 35 9 22 23 35 47
b 36 9 11 23 35 47
b 37 11 23 35 47 48
b 38 11 23 35 36 48
b 39 11 23 24 36 48
b 40 11 24 36 48 49
b 41 11 24 36 37 49
b 42 11 24 25 37 49
b 43 11 25 37 39 49
b 44 25 37 38 39 49
b 45 37 38 39 49 50
b 46 39 51 52
b 47 27 40 41
b 48 12 13 26
1 2
2 4
3 48
3 5
4 12
5 43
6 47
6 13
7 46
7 45
8 16
9 22
10 29
11 36
12 13
13 14
14 15
15 16
16 17
17 18
18 19
19 20
20 21
21 22
22 23
23 24
24 25
25 26
26 27
27 28
28 29
29 30
30 31
31 32
32 33
33 34
34 35
35 36
36 37
37 38
38 39
39 40
40 41
41 42
42 43
43 44
44 45
